sat
(
  (define-fun G () String
    "b")
  (define-fun I () String
    "ccd")
  (define-fun B () String
    "dacdbdcddaababccaddacbaabdababcacbcababcadddcaadcdcbbacdd")
  (define-fun F () String
    "")
  (define-fun D () String
    "acbaab")
)
